certificates/rado_a14_c272_N51.cnf
c Rad2 upper bound instance: x1 + 14*x2 - x3 = 272, interval [1,51]
p cnf 51 368
1 9 20 0
-1 -9 -20 0
1 21 23 0
-1 -21 -23 0
1 22 37 0
-1 -22 -37 0
1 23 51 0
-1 -23 -51 0
2 10 20 0
-2 -10 -20 0
2 21 24 0
-2 -21 -24 0
2 22 38 0
-2 -22 -38 0
3 11 20 0
-3 -11 -20 0
3 21 25 0
-3 -21 -25 0
3 22 39 0
-3 -22 -39 0
4 12 20 0
-4 -12 -20 0
4 21 26 0
-4 -21 -26 0
4 22 40 0
-4 -22 -40 0
5 13 20 0
-5 -13 -20 0
5 21 27 0
-5 -21 -27 0
5 22 41 0
-5 -22 -41 0
6 14 20 0
-6 -14 -20 0
6 21 28 0
-6 -21 -28 0
6 22 42 0
-6 -22 -42 0
1 7 19 0
-1 -7 -19 0
7 15 20 0
-7 -15 -20 0
7 21 29 0
-7 -21 -29 0
7 22 43 0
-7 -22 -43 0
2 8 19 0
-2 -8 -19 0
8 16 20 0
-8 -16 -20 0
8 21 30 0
-8 -21 -30 0
8 22 44 0
-8 -22 -44 0
3 9 19 0
-3 -9 -19 0
9 17 20 0
-9 -17 -20 0
9 21 31 0
-9 -21 -31 0
9 22 45 0
-9 -22 -45 0
4 10 19 0
-4 -10 -19 0
10 18 20 0
-10 -18 -20 0
10 21 32 0
-10 -21 -32 0
10 22 46 0
-10 -22 -46 0
5 11 19 0
-5 -11 -19 0
11 19 20 0
-11 -19 -20 0
11 21 33 0
-11 -21 -33 0
11 22 47 0
-11 -22 -47 0
6 12 19 0
-6 -12 -19 0
12 20 0
-12 -20 0
12 21 34 0
-12 -21 -34 0
12 22 48 0
-12 -22 -48 0
7 13 19 0
-7 -13 -19 0
13 20 21 0
-13 -20 -21 0
13 21 35 0
-13 -21 -35 0
13 22 49 0
-13 -22 -49 0
8 14 19 0
-8 -14 -19 0
14 20 22 0
-14 -20 -22 0
14 21 36 0
-14 -21 -36 0
14 22 50 0
-14 -22 -50 0
9 15 19 0
-9 -15 -19 0
15 20 23 0
-15 -20 -23 0
15 21 37 0
-15 -21 -37 0
15 22 51 0
-15 -22 -51 0
10 16 19 0
-10 -16 -19 0
16 20 24 0
-16 -20 -24 0
16 21 38 0
-16 -21 -38 0
11 17 19 0
-11 -17 -19 0
17 20 25 0
-17 -20 -25 0
17 21 39 0
-17 -21 -39 0
12 18 19 0
-12 -18 -19 0
18 20 26 0
-18 -20 -26 0
18 21 40 0
-18 -21 -40 0
13 19 0
-13 -19 0
19 20 27 0
-19 -20 -27 0
19 21 41 0
-19 -21 -41 0
14 19 20 0
-14 -19 -20 0
20 28 0
-20 -28 0
20 21 42 0
-20 -21 -42 0
1 18 21 0
-1 -18 -21 0
15 19 21 0
-15 -19 -21 0
20 21 29 0
-20 -21 -29 0
21 43 0
-21 -43 0
2 18 22 0
-2 -18 -22 0
16 19 22 0
-16 -19 -22 0
20 22 30 0
-20 -22 -30 0
21 22 44 0
-21 -22 -44 0
3 18 23 0
-3 -18 -23 0
17 19 23 0
-17 -19 -23 0
20 23 31 0
-20 -23 -31 0
21 23 45 0
-21 -23 -45 0
4 18 24 0
-4 -18 -24 0
18 19 24 0
-18 -19 -24 0
20 24 32 0
-20 -24 -32 0
21 24 46 0
-21 -24 -46 0
5 18 25 0
-5 -18 -25 0
19 25 0
-19 -25 0
20 25 33 0
-20 -25 -33 0
21 25 47 0
-21 -25 -47 0
6 18 26 0
-6 -18 -26 0
19 20 26 0
-19 -20 -26 0
20 26 34 0
-20 -26 -34 0
21 26 48 0
-21 -26 -48 0
7 18 27 0
-7 -18 -27 0
19 21 27 0
-19 -21 -27 0
20 27 35 0
-20 -27 -35 0
21 27 49 0
-21 -27 -49 0
8 18 28 0
-8 -18 -28 0
19 22 28 0
-19 -22 -28 0
20 28 36 0
-20 -28 -36 0
21 28 50 0
-21 -28 -50 0
9 18 29 0
-9 -18 -29 0
19 23 29 0
-19 -23 -29 0
20 29 37 0
-20 -29 -37 0
21 29 51 0
-21 -29 -51 0
10 18 30 0
-10 -18 -30 0
19 24 30 0
-19 -24 -30 0
20 30 38 0
-20 -30 -38 0
11 18 31 0
-11 -18 -31 0
19 25 31 0
-19 -25 -31 0
20 31 39 0
-20 -31 -39 0
12 18 32 0
-12 -18 -32 0
19 26 32 0
-19 -26 -32 0
20 32 40 0
-20 -32 -40 0
13 18 33 0
-13 -18 -33 0
19 27 33 0
-19 -27 -33 0
20 33 41 0
-20 -33 -41 0
14 18 34 0
-14 -18 -34 0
19 28 34 0
-19 -28 -34 0
20 34 42 0
-20 -34 -42 0
1 17 35 0
-1 -17 -35 0
15 18 35 0
-15 -18 -35 0
19 29 35 0
-19 -29 -35 0
20 35 43 0
-20 -35 -43 0
2 17 36 0
-2 -17 -36 0
16 18 36 0
-16 -18 -36 0
19 30 36 0
-19 -30 -36 0
20 36 44 0
-20 -36 -44 0
3 17 37 0
-3 -17 -37 0
17 18 37 0
-17 -18 -37 0
19 31 37 0
-19 -31 -37 0
20 37 45 0
-20 -37 -45 0
4 17 38 0
-4 -17 -38 0
18 38 0
-18 -38 0
19 32 38 0
-19 -32 -38 0
20 38 46 0
-20 -38 -46 0
5 17 39 0
-5 -17 -39 0
18 19 39 0
-18 -19 -39 0
19 33 39 0
-19 -33 -39 0
20 39 47 0
-20 -39 -47 0
6 17 40 0
-6 -17 -40 0
18 20 40 0
-18 -20 -40 0
19 34 40 0
-19 -34 -40 0
20 40 48 0
-20 -40 -48 0
7 17 41 0
-7 -17 -41 0
18 21 41 0
-18 -21 -41 0
19 35 41 0
-19 -35 -41 0
20 41 49 0
-20 -41 -49 0
8 17 42 0
-8 -17 -42 0
18 22 42 0
-18 -22 -42 0
19 36 42 0
-19 -36 -42 0
20 42 50 0
-20 -42 -50 0
9 17 43 0
-9 -17 -43 0
18 23 43 0
-18 -23 -43 0
19 37 43 0
-19 -37 -43 0
20 43 51 0
-20 -43 -51 0
10 17 44 0
-10 -17 -44 0
18 24 44 0
-18 -24 -44 0
19 38 44 0
-19 -38 -44 0
11 17 45 0
-11 -17 -45 0
18 25 45 0
-18 -25 -45 0
19 39 45 0
-19 -39 -45 0
12 17 46 0
-12 -17 -46 0
18 26 46 0
-18 -26 -46 0
19 40 46 0
-19 -40 -46 0
13 17 47 0
-13 -17 -47 0
18 27 47 0
-18 -27 -47 0
19 41 47 0
-19 -41 -47 0
14 17 48 0
-14 -17 -48 0
18 28 48 0
-18 -28 -48 0
19 42 48 0
-19 -42 -48 0
1 16 49 0
-1 -16 -49 0
15 17 49 0
-15 -17 -49 0
18 29 49 0
-18 -29 -49 0
19 43 49 0
-19 -43 -49 0
2 16 50 0
-2 -16 -50 0
16 17 50 0
-16 -17 -50 0
18 30 50 0
-18 -30 -50 0
19 44 50 0
-19 -44 -50 0
3 16 51 0
-3 -16 -51 0
17 51 0
-17 -51 0
18 31 51 0
-18 -31 -51 0
19 45 51 0
-19 -45 -51 0
