certificates/rado_a14_c272_N51.drat
-45 -47 -51 0
-25 -47 -51 0
-47 -51 0
d -25 -47 -51 0
d -45 -47 -51 0
22 -50 -51 0
-51 0
17 0
19 0
-13 0
-25 0
-11 0
-23 0
1 0
-35 0
-7 0
21 0
-41 0
-43 0
-27 0
-18 0
-15 0
-39 0
20 0
22 0
0
